NAME: tsp45
TYPE: TSP
COMMENT: 45-node problem
DIMENSION: 45
EDGE_WEIGHT_TYPE: EUC_2D
NODE_COORD_SECTION
1 10 10
2 20 20
3 30 10
4 40 40
5 50 50
6 10 50
7 30 30
8 40 10
9 20 40
10 50 10
11 15 25
12 35 45
13 5 15
14 25 35
15 45 5
16 10 30
17 20 5
18 30 50
19 40 25
20 50 35
21 12 18
22 32 48
23 8 14
24 28 38
25 48 8
26 14 32
27 22 12
28 34 52
29 42 28
30 52 38
31 16 24
32 36 46
33 6 16
34 26 36
35 46 6
36 12 28
37 24 14
38 38 50
39 44 26
40 54 36
41 18 22
42 38 18
43 8 20
44 48 24
45 28 16
EOF
